
(set-option :produce-models true)
(set-option :inline-size-limit 10000)

(declare-const var0 String)

(push 1)
(assert (str.in.re var0 (re.* (re.range "\x01" "\xff"))))
(assert (str.in.re var0 (re.++ (re.++ re.begin-anchor (re.++ ((_ re.capture 1) (re.union (re.range "a" "z") (re.range "0" "9"))) (re.++ (re.* ((_ re.capture 2) (re.++ (re.union (re.++ (str.to.re "") ((_ re.capture 3) (re.union (re.union (str.to.re "-") (str.to.re ".")) (re.+ (str.to.re "_"))))) (str.to.re "")) ((_ re.capture 4) (re.+ (re.union (re.range "a" "z") (re.range "0" "9"))))))) (re.++ ((_ re.capture 5) (str.to.re "@")) (re.++ ((_ re.capture 6) (re.union (re.range "a" "z") (re.range "0" "9"))) (re.++ (re.* ((_ re.capture 7) (re.union (re.++ (str.to.re "") ((_ re.capture 8) (re.++ (re.union (re.++ (str.to.re "") ((_ re.capture 9) (re.+ (str.to.re "-")))) (str.to.re "")) ((_ re.capture 10) (re.+ (re.union (re.range "a" "z") (re.range "0" "9"))))))) (str.to.re "")))) ((_ re.capture 11) (re.++ (re.union (re.++ (str.to.re "") ((_ re.capture 12) (re.++ (re.range "\x01" "\xff") (re.union (re.++ (re.range "a" "z") (re.++ (re.range "a" "z") (re.range "a" "z"))) (re.++ (re.range "a" "z") (re.range "a" "z")))))) (str.to.re "")) ((_ re.capture 13) (re.++ (re.range "\x01" "\xff") (re.union (re.union (re.union (re.union (re.++ (re.range "a" "z") (re.++ (re.range "a" "z") (re.++ (re.range "a" "z") (re.++ (re.range "a" "z") (re.++ (re.range "a" "z") (re.range "a" "z")))))) (re.++ (re.range "a" "z") (re.++ (re.range "a" "z") (re.++ (re.range "a" "z") (re.++ (re.range "a" "z") (re.range "a" "z")))))) (re.++ (re.range "a" "z") (re.++ (re.range "a" "z") (re.++ (re.range "a" "z") (re.range "a" "z"))))) (re.++ (re.range "a" "z") (re.++ (re.range "a" "z") (re.range "a" "z")))) (re.++ (re.range "a" "z") (re.range "a" "z"))))))))))))) re.end-anchor)))	; match!==null
(assert (not (str.in.re ((_ str.extract 1) var0 (re.++ (re.++ re.begin-anchor (re.++ ((_ re.capture 1) (re.union (re.range "a" "z") (re.range "0" "9"))) (re.++ (re.* ((_ re.capture 2) (re.++ (re.union (re.++ (str.to.re "") ((_ re.capture 3) (re.union (re.union (str.to.re "-") (str.to.re ".")) (re.+ (str.to.re "_"))))) (str.to.re "")) ((_ re.capture 4) (re.+ (re.union (re.range "a" "z") (re.range "0" "9"))))))) (re.++ ((_ re.capture 5) (str.to.re "@")) (re.++ ((_ re.capture 6) (re.union (re.range "a" "z") (re.range "0" "9"))) (re.++ (re.* ((_ re.capture 7) (re.union (re.++ (str.to.re "") ((_ re.capture 8) (re.++ (re.union (re.++ (str.to.re "") ((_ re.capture 9) (re.+ (str.to.re "-")))) (str.to.re "")) ((_ re.capture 10) (re.+ (re.union (re.range "a" "z") (re.range "0" "9"))))))) (str.to.re "")))) ((_ re.capture 11) (re.++ (re.union (re.++ (str.to.re "") ((_ re.capture 12) (re.++ (re.range "\x01" "\xff") (re.union (re.++ (re.range "a" "z") (re.++ (re.range "a" "z") (re.range "a" "z"))) (re.++ (re.range "a" "z") (re.range "a" "z")))))) (str.to.re "")) ((_ re.capture 13) (re.++ (re.range "\x01" "\xff") (re.union (re.union (re.union (re.union (re.++ (re.range "a" "z") (re.++ (re.range "a" "z") (re.++ (re.range "a" "z") (re.++ (re.range "a" "z") (re.++ (re.range "a" "z") (re.range "a" "z")))))) (re.++ (re.range "a" "z") (re.++ (re.range "a" "z") (re.++ (re.range "a" "z") (re.++ (re.range "a" "z") (re.range "a" "z")))))) (re.++ (re.range "a" "z") (re.++ (re.range "a" "z") (re.++ (re.range "a" "z") (re.range "a" "z"))))) (re.++ (re.range "a" "z") (re.++ (re.range "a" "z") (re.range "a" "z")))) (re.++ (re.range "a" "z") (re.range "a" "z"))))))))))))) re.end-anchor)) (str.to.re "\x00"))))
;match[1]!==null
(assert (str.in.re ((_ str.extract 1) var0 (re.++ (re.++ re.begin-anchor (re.++ ((_ re.capture 1) (re.union (re.range "a" "z") (re.range "0" "9"))) (re.++ (re.* ((_ re.capture 2) (re.++ (re.union (re.++ (str.to.re "") ((_ re.capture 3) (re.union (re.union (str.to.re "-") (str.to.re ".")) (re.+ (str.to.re "_"))))) (str.to.re "")) ((_ re.capture 4) (re.+ (re.union (re.range "a" "z") (re.range "0" "9"))))))) (re.++ ((_ re.capture 5) (str.to.re "@")) (re.++ ((_ re.capture 6) (re.union (re.range "a" "z") (re.range "0" "9"))) (re.++ (re.* ((_ re.capture 7) (re.union (re.++ (str.to.re "") ((_ re.capture 8) (re.++ (re.union (re.++ (str.to.re "") ((_ re.capture 9) (re.+ (str.to.re "-")))) (str.to.re "")) ((_ re.capture 10) (re.+ (re.union (re.range "a" "z") (re.range "0" "9"))))))) (str.to.re "")))) ((_ re.capture 11) (re.++ (re.union (re.++ (str.to.re "") ((_ re.capture 12) (re.++ (re.range "\x01" "\xff") (re.union (re.++ (re.range "a" "z") (re.++ (re.range "a" "z") (re.range "a" "z"))) (re.++ (re.range "a" "z") (re.range "a" "z")))))) (str.to.re "")) ((_ re.capture 13) (re.++ (re.range "\x01" "\xff") (re.union (re.union (re.union (re.union (re.++ (re.range "a" "z") (re.++ (re.range "a" "z") (re.++ (re.range "a" "z") (re.++ (re.range "a" "z") (re.++ (re.range "a" "z") (re.range "a" "z")))))) (re.++ (re.range "a" "z") (re.++ (re.range "a" "z") (re.++ (re.range "a" "z") (re.++ (re.range "a" "z") (re.range "a" "z")))))) (re.++ (re.range "a" "z") (re.++ (re.range "a" "z") (re.++ (re.range "a" "z") (re.range "a" "z"))))) (re.++ (re.range "a" "z") (re.++ (re.range "a" "z") (re.range "a" "z")))) (re.++ (re.range "a" "z") (re.range "a" "z"))))))))))))) re.end-anchor)) (re.++ re.all(re.+ (re.range "a" "z")) re.all) ))
;/[a-z]+/.test(match[1]) == true
(check-sat)
(get-model)
(pop 1)
(push 1)
(assert (str.in.re var0 (re.* (re.range "\x01" "\xff"))))
(assert (str.in.re var0 (re.++ (re.++ re.begin-anchor (re.++ ((_ re.capture 1) (re.union (re.range "a" "z") (re.range "0" "9"))) (re.++ (re.* ((_ re.capture 2) (re.++ (re.union (re.++ (str.to.re "") ((_ re.capture 3) (re.union (re.union (str.to.re "-") (str.to.re ".")) (re.+ (str.to.re "_"))))) (str.to.re "")) ((_ re.capture 4) (re.+ (re.union (re.range "a" "z") (re.range "0" "9"))))))) (re.++ ((_ re.capture 5) (str.to.re "@")) (re.++ ((_ re.capture 6) (re.union (re.range "a" "z") (re.range "0" "9"))) (re.++ (re.* ((_ re.capture 7) (re.union (re.++ (str.to.re "") ((_ re.capture 8) (re.++ (re.union (re.++ (str.to.re "") ((_ re.capture 9) (re.+ (str.to.re "-")))) (str.to.re "")) ((_ re.capture 10) (re.+ (re.union (re.range "a" "z") (re.range "0" "9"))))))) (str.to.re "")))) ((_ re.capture 11) (re.++ (re.union (re.++ (str.to.re "") ((_ re.capture 12) (re.++ (re.range "\x01" "\xff") (re.union (re.++ (re.range "a" "z") (re.++ (re.range "a" "z") (re.range "a" "z"))) (re.++ (re.range "a" "z") (re.range "a" "z")))))) (str.to.re "")) ((_ re.capture 13) (re.++ (re.range "\x01" "\xff") (re.union (re.union (re.union (re.union (re.++ (re.range "a" "z") (re.++ (re.range "a" "z") (re.++ (re.range "a" "z") (re.++ (re.range "a" "z") (re.++ (re.range "a" "z") (re.range "a" "z")))))) (re.++ (re.range "a" "z") (re.++ (re.range "a" "z") (re.++ (re.range "a" "z") (re.++ (re.range "a" "z") (re.range "a" "z")))))) (re.++ (re.range "a" "z") (re.++ (re.range "a" "z") (re.++ (re.range "a" "z") (re.range "a" "z"))))) (re.++ (re.range "a" "z") (re.++ (re.range "a" "z") (re.range "a" "z")))) (re.++ (re.range "a" "z") (re.range "a" "z"))))))))))))) re.end-anchor)))	; match!==null
(assert (not (str.in.re ((_ str.extract 1) var0 (re.++ (re.++ re.begin-anchor (re.++ ((_ re.capture 1) (re.union (re.range "a" "z") (re.range "0" "9"))) (re.++ (re.* ((_ re.capture 2) (re.++ (re.union (re.++ (str.to.re "") ((_ re.capture 3) (re.union (re.union (str.to.re "-") (str.to.re ".")) (re.+ (str.to.re "_"))))) (str.to.re "")) ((_ re.capture 4) (re.+ (re.union (re.range "a" "z") (re.range "0" "9"))))))) (re.++ ((_ re.capture 5) (str.to.re "@")) (re.++ ((_ re.capture 6) (re.union (re.range "a" "z") (re.range "0" "9"))) (re.++ (re.* ((_ re.capture 7) (re.union (re.++ (str.to.re "") ((_ re.capture 8) (re.++ (re.union (re.++ (str.to.re "") ((_ re.capture 9) (re.+ (str.to.re "-")))) (str.to.re "")) ((_ re.capture 10) (re.+ (re.union (re.range "a" "z") (re.range "0" "9"))))))) (str.to.re "")))) ((_ re.capture 11) (re.++ (re.union (re.++ (str.to.re "") ((_ re.capture 12) (re.++ (re.range "\x01" "\xff") (re.union (re.++ (re.range "a" "z") (re.++ (re.range "a" "z") (re.range "a" "z"))) (re.++ (re.range "a" "z") (re.range "a" "z")))))) (str.to.re "")) ((_ re.capture 13) (re.++ (re.range "\x01" "\xff") (re.union (re.union (re.union (re.union (re.++ (re.range "a" "z") (re.++ (re.range "a" "z") (re.++ (re.range "a" "z") (re.++ (re.range "a" "z") (re.++ (re.range "a" "z") (re.range "a" "z")))))) (re.++ (re.range "a" "z") (re.++ (re.range "a" "z") (re.++ (re.range "a" "z") (re.++ (re.range "a" "z") (re.range "a" "z")))))) (re.++ (re.range "a" "z") (re.++ (re.range "a" "z") (re.++ (re.range "a" "z") (re.range "a" "z"))))) (re.++ (re.range "a" "z") (re.++ (re.range "a" "z") (re.range "a" "z")))) (re.++ (re.range "a" "z") (re.range "a" "z"))))))))))))) re.end-anchor)) (str.to.re "\x00"))))	
;match[1]!==null
(assert (not (str.in.re ((_ str.extract 1) var0 (re.++ (re.++ re.begin-anchor (re.++ ((_ re.capture 1) (re.union (re.range "a" "z") (re.range "0" "9"))) (re.++ (re.* ((_ re.capture 2) (re.++ (re.union (re.++ (str.to.re "") ((_ re.capture 3) (re.union (re.union (str.to.re "-") (str.to.re ".")) (re.+ (str.to.re "_"))))) (str.to.re "")) ((_ re.capture 4) (re.+ (re.union (re.range "a" "z") (re.range "0" "9"))))))) (re.++ ((_ re.capture 5) (str.to.re "@")) (re.++ ((_ re.capture 6) (re.union (re.range "a" "z") (re.range "0" "9"))) (re.++ (re.* ((_ re.capture 7) (re.union (re.++ (str.to.re "") ((_ re.capture 8) (re.++ (re.union (re.++ (str.to.re "") ((_ re.capture 9) (re.+ (str.to.re "-")))) (str.to.re "")) ((_ re.capture 10) (re.+ (re.union (re.range "a" "z") (re.range "0" "9"))))))) (str.to.re "")))) ((_ re.capture 11) (re.++ (re.union (re.++ (str.to.re "") ((_ re.capture 12) (re.++ (re.range "\x01" "\xff") (re.union (re.++ (re.range "a" "z") (re.++ (re.range "a" "z") (re.range "a" "z"))) (re.++ (re.range "a" "z") (re.range "a" "z")))))) (str.to.re "")) ((_ re.capture 13) (re.++ (re.range "\x01" "\xff") (re.union (re.union (re.union (re.union (re.++ (re.range "a" "z") (re.++ (re.range "a" "z") (re.++ (re.range "a" "z") (re.++ (re.range "a" "z") (re.++ (re.range "a" "z") (re.range "a" "z")))))) (re.++ (re.range "a" "z") (re.++ (re.range "a" "z") (re.++ (re.range "a" "z") (re.++ (re.range "a" "z") (re.range "a" "z")))))) (re.++ (re.range "a" "z") (re.++ (re.range "a" "z") (re.++ (re.range "a" "z") (re.range "a" "z"))))) (re.++ (re.range "a" "z") (re.++ (re.range "a" "z") (re.range "a" "z")))) (re.++ (re.range "a" "z") (re.range "a" "z"))))))))))))) re.end-anchor)) (re.++ re.all(re.+ (re.range "a" "z")) re.all) )))
;/[a-z]+/.test(match[1]) == false	
(check-sat)
(get-model)
(pop 1)
(push 1)
(assert (str.in.re var0 (re.* (re.range "\x01" "\xff"))))
(assert (str.in.re var0 (re.++ (re.++ re.begin-anchor (re.++ ((_ re.capture 1) (re.union (re.range "a" "z") (re.range "0" "9"))) (re.++ (re.* ((_ re.capture 2) (re.++ (re.union (re.++ (str.to.re "") ((_ re.capture 3) (re.union (re.union (str.to.re "-") (str.to.re ".")) (re.+ (str.to.re "_"))))) (str.to.re "")) ((_ re.capture 4) (re.+ (re.union (re.range "a" "z") (re.range "0" "9"))))))) (re.++ ((_ re.capture 5) (str.to.re "@")) (re.++ ((_ re.capture 6) (re.union (re.range "a" "z") (re.range "0" "9"))) (re.++ (re.* ((_ re.capture 7) (re.union (re.++ (str.to.re "") ((_ re.capture 8) (re.++ (re.union (re.++ (str.to.re "") ((_ re.capture 9) (re.+ (str.to.re "-")))) (str.to.re "")) ((_ re.capture 10) (re.+ (re.union (re.range "a" "z") (re.range "0" "9"))))))) (str.to.re "")))) ((_ re.capture 11) (re.++ (re.union (re.++ (str.to.re "") ((_ re.capture 12) (re.++ (re.range "\x01" "\xff") (re.union (re.++ (re.range "a" "z") (re.++ (re.range "a" "z") (re.range "a" "z"))) (re.++ (re.range "a" "z") (re.range "a" "z")))))) (str.to.re "")) ((_ re.capture 13) (re.++ (re.range "\x01" "\xff") (re.union (re.union (re.union (re.union (re.++ (re.range "a" "z") (re.++ (re.range "a" "z") (re.++ (re.range "a" "z") (re.++ (re.range "a" "z") (re.++ (re.range "a" "z") (re.range "a" "z")))))) (re.++ (re.range "a" "z") (re.++ (re.range "a" "z") (re.++ (re.range "a" "z") (re.++ (re.range "a" "z") (re.range "a" "z")))))) (re.++ (re.range "a" "z") (re.++ (re.range "a" "z") (re.++ (re.range "a" "z") (re.range "a" "z"))))) (re.++ (re.range "a" "z") (re.++ (re.range "a" "z") (re.range "a" "z")))) (re.++ (re.range "a" "z") (re.range "a" "z"))))))))))))) re.end-anchor)))	; match!==null
(assert (str.in.re ((_ str.extract 1) var0 (re.++ (re.++ re.begin-anchor (re.++ ((_ re.capture 1) (re.union (re.range "a" "z") (re.range "0" "9"))) (re.++ (re.* ((_ re.capture 2) (re.++ (re.union (re.++ (str.to.re "") ((_ re.capture 3) (re.union (re.union (str.to.re "-") (str.to.re ".")) (re.+ (str.to.re "_"))))) (str.to.re "")) ((_ re.capture 4) (re.+ (re.union (re.range "a" "z") (re.range "0" "9"))))))) (re.++ ((_ re.capture 5) (str.to.re "@")) (re.++ ((_ re.capture 6) (re.union (re.range "a" "z") (re.range "0" "9"))) (re.++ (re.* ((_ re.capture 7) (re.union (re.++ (str.to.re "") ((_ re.capture 8) (re.++ (re.union (re.++ (str.to.re "") ((_ re.capture 9) (re.+ (str.to.re "-")))) (str.to.re "")) ((_ re.capture 10) (re.+ (re.union (re.range "a" "z") (re.range "0" "9"))))))) (str.to.re "")))) ((_ re.capture 11) (re.++ (re.union (re.++ (str.to.re "") ((_ re.capture 12) (re.++ (re.range "\x01" "\xff") (re.union (re.++ (re.range "a" "z") (re.++ (re.range "a" "z") (re.range "a" "z"))) (re.++ (re.range "a" "z") (re.range "a" "z")))))) (str.to.re "")) ((_ re.capture 13) (re.++ (re.range "\x01" "\xff") (re.union (re.union (re.union (re.union (re.++ (re.range "a" "z") (re.++ (re.range "a" "z") (re.++ (re.range "a" "z") (re.++ (re.range "a" "z") (re.++ (re.range "a" "z") (re.range "a" "z")))))) (re.++ (re.range "a" "z") (re.++ (re.range "a" "z") (re.++ (re.range "a" "z") (re.++ (re.range "a" "z") (re.range "a" "z")))))) (re.++ (re.range "a" "z") (re.++ (re.range "a" "z") (re.++ (re.range "a" "z") (re.range "a" "z"))))) (re.++ (re.range "a" "z") (re.++ (re.range "a" "z") (re.range "a" "z")))) (re.++ (re.range "a" "z") (re.range "a" "z"))))))))))))) re.end-anchor)) (str.to.re "\x00")))
;match[1]==null
(check-sat)
(get-model)
(pop 1)
(push 1)
(assert (str.in.re var0 (re.* (re.range "\x01" "\xff"))))
(assert (not (str.in.re var0 (re.++ (re.++ re.begin-anchor (re.++ ((_ re.capture 1) (re.union (re.range "a" "z") (re.range "0" "9"))) (re.++ (re.* ((_ re.capture 2) (re.++ (re.union (re.++ (str.to.re "") ((_ re.capture 3) (re.union (re.union (str.to.re "-") (str.to.re ".")) (re.+ (str.to.re "_"))))) (str.to.re "")) ((_ re.capture 4) (re.+ (re.union (re.range "a" "z") (re.range "0" "9"))))))) (re.++ ((_ re.capture 5) (str.to.re "@")) (re.++ ((_ re.capture 6) (re.union (re.range "a" "z") (re.range "0" "9"))) (re.++ (re.* ((_ re.capture 7) (re.union (re.++ (str.to.re "") ((_ re.capture 8) (re.++ (re.union (re.++ (str.to.re "") ((_ re.capture 9) (re.+ (str.to.re "-")))) (str.to.re "")) ((_ re.capture 10) (re.+ (re.union (re.range "a" "z") (re.range "0" "9"))))))) (str.to.re "")))) ((_ re.capture 11) (re.++ (re.union (re.++ (str.to.re "") ((_ re.capture 12) (re.++ (re.range "\x01" "\xff") (re.union (re.++ (re.range "a" "z") (re.++ (re.range "a" "z") (re.range "a" "z"))) (re.++ (re.range "a" "z") (re.range "a" "z")))))) (str.to.re "")) ((_ re.capture 13) (re.++ (re.range "\x01" "\xff") (re.union (re.union (re.union (re.union (re.++ (re.range "a" "z") (re.++ (re.range "a" "z") (re.++ (re.range "a" "z") (re.++ (re.range "a" "z") (re.++ (re.range "a" "z") (re.range "a" "z")))))) (re.++ (re.range "a" "z") (re.++ (re.range "a" "z") (re.++ (re.range "a" "z") (re.++ (re.range "a" "z") (re.range "a" "z")))))) (re.++ (re.range "a" "z") (re.++ (re.range "a" "z") (re.++ (re.range "a" "z") (re.range "a" "z"))))) (re.++ (re.range "a" "z") (re.++ (re.range "a" "z") (re.range "a" "z")))) (re.++ (re.range "a" "z") (re.range "a" "z"))))))))))))) re.end-anchor))))	; match == null
(check-sat)
(get-model)
(pop 1)
(exit)
